Sc1 N1                                  
   1.00000000000000     
     3.1798827456534773    0.0000000643491898    0.0000000044377987
     1.5899414285350655    2.7538592036534153    0.0000000183607565
     1.5899413950154480    0.9179531045560980    2.5963633341519454
  N   Sc   
   1   1  
Direct
  0.5000000032036236  0.4999999944562062  0.4999999998162383
 -0.0000000032036235  0.0000000055437938  0.0000000001837617
