Al2 N2                                  
   1.00000000000000     
     3.1132334048457957   -0.0000000191330491    0.0000000005529382
    -1.5566170779458119    2.6961389991747322    0.0000000011113026
     0.0000000015186623    0.0000000020877765    4.9868471200022624
   Al   N 
     2     2
Direct
  0.6666666106664108  0.3333333595864565  0.4991206340634508
  0.3333333591532410  0.6666666104040225  0.9991206361609676
  0.6666666815985759  0.3333332901324180  0.8808793601302289
  0.3333332905817745  0.6666666818771052  0.3808793596453500
 
  0.00000000E+00  0.00000000E+00  0.00000000E+00
  0.00000000E+00  0.00000000E+00  0.00000000E+00
  0.00000000E+00  0.00000000E+00  0.00000000E+00
  0.00000000E+00  0.00000000E+00  0.00000000E+00
