Sc1 N1                                  
   1.00000000000000     
     3.4432092056704131    0.0000002728918396    0.0000002328392998
     1.7216048391511511    2.9819064839246345    0.0000002455071538
     1.7216048717902048    0.9939690405704728    2.8113683298916459
N   Sc 
1     1
Direct
  0.2499999993506762  0.2500000091137917  0.2500000070114426
  0.0000000006493238 -0.0000000091137916 -0.0000000070114426
 
