Al2 N2                                  
   1.00000000000000     
     3.6199866809054928   -0.0000041542120161    0.0000000231131616
    -1.8099973469338839    3.1349975179705680    0.0000000017073684
     0.0000000281928177    0.0000000213413766    4.5323932396123086
N   Sc    
 2    2  
Direct
  0.6666664140067226  0.3333335762258480  0.9396779020734559
  0.3333335628911763  0.6666663964175336  0.4396779086533776
  0.6666665388539300  0.3333334074893966  0.4403220918172178
  0.3333334262481742  0.6666665618672240  0.9403220874559460
