Al1 N1                                  
   1.00000000000000     
     3.0959645105580633    0.0000001514542815    0.0000001038802537
     1.5479823864915743    2.6811838244644322    0.0000001084800556
     1.5479823837509676    0.8937280452348259    2.5278443378052202
   Al   N 
     1     1
Direct
 -0.0000000015173110 -0.0000000001109416  0.0000000012257798
  0.2500000015173110  0.2500000001109416  0.2499999987742203
 
  0.00000000E+00  0.00000000E+00  0.00000000E+00
  0.00000000E+00  0.00000000E+00  0.00000000E+00
