Al2 N2                                  
   1.00000000000000     
     3.2762715944893035   -0.0000149168616502    0.0000000001292726
    -1.6381490935403764    2.8373267517611840   -0.0000000000810459
    -0.0000000001391355   -0.0000000001820823    4.2195073418461959
   Al   N 
     2     2
Direct
  0.6666600000000003  0.3333299999999966  0.5000000000000000 
  0.3333299999999966  0.6666600000000003  0.0000000000000000 
  0.6666600000000003  0.3333299999999966  0.0000000000000000 
  0.3333299999999966  0.6666600000000003  0.5000000000000000 
 
  0.00000000E+00  0.00000000E+00  0.00000000E+00
  0.00000000E+00  0.00000000E+00  0.00000000E+00
  0.00000000E+00  0.00000000E+00  0.00000000E+00
  0.00000000E+00  0.00000000E+00  0.00000000E+00
