Al  N Sc 
 1.0000000000000000
     9.8288100000000007    0.0000000000000000    0.0000000000000000
    -4.9145535616625624    8.5119133751260563    0.0000000000000000
     0.0000000000000000    0.0000000000000000    8.4390199999999993
 Al  N   Sc 
  26  36  10
Cartesian
  1.6381021119636729  0.9457586951102561  2.1097549999999998
 -0.0000330133726545  1.8915173902205122  0.0000000000000000
  1.6381021119636729  0.9457586951102561  6.3292649999999995
 -0.0000330133726545  1.8915173902205122  4.2195099999999996
 -0.0000660267453090  3.7830347804410245  2.1097549999999998
 -1.6382011520816364  4.7287934755512806  0.0000000000000000
 -0.0000660267453090  3.7830347804410245  6.3292649999999995
 -1.6382833109899082  6.6203959849055440  2.1097549999999998
 -1.6382833109899082  6.6203959849055440  6.3292649999999995
 -3.2764184363262352  7.5661546800158002  4.2195099999999996
  4.9143393492636713  0.9457586951102561  2.1097549999999998
  3.2762042239273459  1.8915173902205122  0.0000000000000000
  3.2762042239273459  1.8915173902205122  4.2195099999999996
  1.6380360852183640  4.7287934755512806  0.0000000000000000
  3.2761712105546907  3.7830347804410245  6.3292649999999995
  1.6379539263100920  6.6203959849055440  2.1097549999999998
 -0.0001811990262344  7.5661546800158002  0.0000000000000000
 -0.0001811990262344  7.5661546800158002  4.2195099999999996
  6.5525397493273472  1.8915173902205122  0.0000000000000000
  6.5525397493273472  1.8915173902205122  4.2195099999999996
  6.5525067359546902  3.7830347804410245  2.1097549999999998
  4.9143716106183657  4.7287934755512806  0.0000000000000000
  4.9143716106183657  4.7287934755512806  4.2195099999999996
  4.9142894517100917  6.6203959849055440  2.1097549999999998
  4.9142894517100917  6.6203959849055440  6.3292649999999995
  3.2761543263737658  7.5661546800158002  4.2195099999999996
  1.6381021119636729  0.9457586951102561  0.0000000000000000
  1.6381021119636729  0.9457586951102561  4.2195099999999996
 -0.0000660267453090  3.7830347804410245  0.0000000000000000
 -0.0000660267453090  3.7830347804410245  4.2195099999999996
 -1.6382833109899082  6.6203959849055440  0.0000000000000000
 -1.6382833109899082  6.6203959849055440  4.2195099999999996
  4.9143393492636713  0.9457586951102561  0.0000000000000000
  4.9143393492636713  0.9457586951102561  4.2195099999999996
  3.2761712105546907  3.7830347804410245  0.0000000000000000
  3.2761712105546907  3.7830347804410245  4.2195099999999996
  1.6379539263100920  6.6203959849055440  0.0000000000000000
  1.6379539263100920  6.6203959849055440  4.2195099999999996
  8.1906748746636726  0.9457586951102561  0.0000000000000000
  8.1906748746636726  0.9457586951102561  4.2195099999999996
  6.5525067359546902  3.7830347804410245  0.0000000000000000
  6.5525067359546902  3.7830347804410245  4.2195099999999996
  4.9142894517100917  6.6203959849055440  0.0000000000000000
  4.9142894517100917  6.6203959849055440  4.2195099999999996
 -0.0000330133726545  1.8915173902205122  2.1097549999999998
 -0.0000330133726545  1.8915173902205122  6.3292649999999995
 -1.6382011520816364  4.7287934755512806  2.1097549999999998
 -1.6382011520816364  4.7287934755512806  6.3292649999999995
 -3.2764184363262352  7.5661546800158002  2.1097549999999998
 -3.2764184363262352  7.5661546800158002  6.3292649999999995
  3.2762042239273459  1.8915173902205122  2.1097549999999998
  3.2762042239273459  1.8915173902205122  6.3292649999999995
  1.6380360852183640  4.7287934755512806  2.1097549999999998
  1.6380360852183640  4.7287934755512806  6.3292649999999995
 -0.0001811990262344  7.5661546800158002  2.1097549999999998
 -0.0001811990262344  7.5661546800158002  6.3292649999999995
  6.5525397493273472  1.8915173902205122  2.1097549999999998
  6.5525397493273472  1.8915173902205122  6.3292649999999995
  4.9143716106183657  4.7287934755512806  2.1097549999999998
  4.9143716106183657  4.7287934755512806  6.3292649999999995
  3.2761543263737658  7.5661546800158002  2.1097549999999998
  3.2761543263737658  7.5661546800158002  6.3292649999999995
 -1.6382011520816364  4.7287934755512806  4.2195099999999996
 -3.2764184363262352  7.5661546800158002  0.0000000000000000
  4.9143393492636713  0.9457586951102561  6.3292649999999995
  3.2761712105546907  3.7830347804410245  2.1097549999999998
  1.6380360852183640  4.7287934755512806  4.2195099999999996
  1.6379539263100920  6.6203959849055440  6.3292649999999995
  8.1906748746636726  0.9457586951102561  2.1097549999999998
  8.1906748746636726  0.9457586951102561  6.3292649999999995
  6.5525067359546902  3.7830347804410245  6.3292649999999995
  3.2761543263737658  7.5661546800158002  0.0000000000000000
