Al  N Sc 
 1.0000000000000000
     9.2878799999999995    0.0000000000000000    0.0000000000000000
     4.6439400000000006    8.0435400273014110    0.0000000000000000
     4.6439400000000006    2.6811800091004709    7.5835222640670068
 Al  N   Sc 
  20  27   7
Cartesian
  4.6438935606000005  2.6811531973003788  0.0000000000000000
  6.1918580808000003  3.5748709297338395  2.5278154762814555
  7.7398690404000012  4.4686154739673905  5.0557067877855513
  6.1919045202000014  5.3623868300010313  0.0000000000000000
  7.7398690403999995  6.2561045624344915  2.5278154762814555
  9.2878800000000012  7.1498491066680421  5.0557067877855513
  3.0959290404000006  0.0000000000000000  0.0000000000000000
  4.6438935606000005  0.8937177324334600  2.5278154762814555
  7.7399154797999996  2.6811531973003788  0.0000000000000000
  9.2878799999999995  3.5748709297338395  2.5278154762814555
  9.2879264393999996  5.3623868300010313  0.0000000000000000
 10.8358909596000004  6.2561045624344915  2.5278154762814555
 12.3839019191999995  7.1498491066680421  5.0557067877855513
  7.7399154797999996  0.8937177324334600  2.5278154762814555
  9.2879264393999996  1.7874622766670110  5.0557067877855513
  1.5479645202000003  2.6811531973003788  0.0000000000000000
  3.0959290404000006  3.5748709297338395  2.5278154762814555
  4.6439400000000006  4.4686154739673905  5.0557067877855513
  4.6439400000000006  6.2561045624344915  2.5278154762814555
  3.0959754798000003  1.7874622766670110  5.0557067877855513
  1.5479180808000002  0.8936909206333689  0.6319349102647037
  3.0959290404000002  1.7874354648669197  3.1598262217687996
  4.6438935606000005  2.6811531973003797  5.6876416980502551
  3.0959290404000002  3.5749245533340219  0.6319349102647037
  4.6439400000000006  4.4686690975675720  3.1598262217687996
  6.1919045202000005  5.3623868300010322  5.6876416980502551
  4.6438935606000005  6.2560777506344003  0.6319349102647037
  6.1919045202000023  7.1498222948679517  3.1598262217687996
  7.7398690404000012  8.0435400273014110  5.6876416980502551
  4.6439399999999988  0.8936909206333689  0.6319349102647037
  6.1919509596000006  1.7874354648669197  3.1598262217687996
  7.7399154797999996  2.6811531973003797  5.6876416980502551
  6.1919509595999997  3.5749245533340219  0.6319349102647037
  7.7399619192000015  4.4686690975675720  3.1598262217687996
  9.2879264393999996  5.3623868300010322  5.6876416980502551
  7.7399154797999996  6.2560777506344003  0.6319349102647037
  9.2879264393999996  7.1498222948679517  3.1598262217687996
 10.8358909596000004  8.0435400273014110  5.6876416980502551
  7.7398690403999986  0.8936909206333689  0.6319349102647037
  9.2878800000000012  1.7874354648669197  3.1598262217687996
 10.8358445201999984  2.6811531973003797  5.6876416980502551
  9.2878799999999995  3.5749245533340219  0.6319349102647037
 10.8358909595999986  4.4686690975675720  3.1598262217687996
 12.3838554797999993  5.3623868300010322  5.6876416980502551
 10.8358445202000002  6.2560777506344003  0.6319349102647037
 12.3838554797999993  7.1498222948679517  3.1598262217687996
 13.9318200000000001  8.0435400273014110  5.6876416980502551
  6.1919045202000014  1.7874622766670110  5.0557067877855513
 10.8358909596000004  4.4686154739673905  5.0557067877855513
  6.1919509595999997  0.0000000000000000  0.0000000000000000
  3.0959754798000003  5.3623868300010313  0.0000000000000000
  6.1919509596000006  7.1498491066680421  5.0557067877855513
  0.0000000000000000  0.0000000000000000  0.0000000000000000
  1.5479645202000003  0.8937177324334600  2.5278154762814555
