Al1 N1                                  
   1.00000000000000     
     2.8635023824503723    0.0000000245288902    0.0000000245454918
     1.4317512124445060    2.4798657958547081    0.0000000234285921
     1.4317512182957981    0.8266219507185020    2.3380399015649531
   Al   N 
     1     1
Direct
  0.4999999994288039  0.5000000004329176  0.5000000001764049
  0.0000000005711961 -0.0000000004329176 -0.0000000001764049
 
  0.00000000E+00  0.00000000E+00  0.00000000E+00
  0.00000000E+00  0.00000000E+00  0.00000000E+00
