Al N  Sc
 1.0000000000000000
     9.3396899999999992    0.0000000000000000    0.0000000000000000
    -4.6698449999999978    8.0884088034714843    0.0000000000000000
     0.0000000000000000    0.0000000000000000    9.9736999999999991
 Al  N   Sc 
  14  36  22
Cartesian
  1.5565994338500000  0.8987031021537166  2.4890365720000003
  1.5565994338500000  0.8987031021537166  7.4758865719999994
  0.0000000000000008  3.5948124086148665  2.4890365720000003
 -1.5566461322999980  6.2910025991640515  2.4890365720000003
  4.6698916984500007  0.8987031021537166  2.4890365720000003
  1.5566461323000020  6.2910025991640515  7.4758865719999994
  7.7830905661499985  0.8987031021537166  2.4890365720000003
  0.0000000000000004  1.7974062043074333  9.9693115719999987
 -1.5566461322999994  4.4935963948566187  4.9824615719999992
 -1.5566461322999994  4.4935963948566187  9.9693115719999987
 -3.1132455661499976  7.1897057013177674  9.9693115719999987
  1.5565527354000006  4.4935963948566187  4.9824615719999992
  1.5565527354000006  4.4935963948566187  9.9693115719999987
 -0.0000466984499982  7.1897057013177674  9.9693115719999987
  1.5565994338500000  0.8987031021537166  4.3928164279999997
  1.5565994338500000  0.8987031021537166  9.3796664280000002
  0.0000000000000008  3.5948124086148665  4.3928164279999997
  0.0000000000000008  3.5948124086148665  9.3796664280000002
 -1.5566461322999980  6.2910025991640515  4.3928164279999997
 -1.5566461322999980  6.2910025991640515  9.3796664280000002
  4.6698916984500007  0.8987031021537166  4.3928164279999997
  4.6698916984500007  0.8987031021537166  9.3796664280000002
  3.1132922646000014  3.5948124086148665  4.3928164279999997
  3.1132922646000014  3.5948124086148665  9.3796664280000002
  1.5566461323000020  6.2910025991640515  4.3928164279999997
  1.5566461323000020  6.2910025991640515  9.3796664280000002
  7.7830905661499985  0.8987031021537166  4.3928164279999997
  7.7830905661499985  0.8987031021537166  9.3796664280000002
  6.2264911322999987  3.5948124086148665  4.3928164279999997
  6.2264911322999987  3.5948124086148665  9.3796664280000002
  4.6698449999999996  6.2910025991640515  4.3928164279999997
  4.6698449999999996  6.2910025991640515  9.3796664280000002
  0.0000000000000004  1.7974062043074333  1.8993914279999997
  0.0000000000000004  1.7974062043074333  6.8862414279999999
 -1.5566461322999994  4.4935963948566187  1.8993914279999997
 -1.5566461322999994  4.4935963948566187  6.8862414279999999
 -3.1132455661499976  7.1897057013177674  1.8993914279999997
 -3.1132455661499976  7.1897057013177674  6.8862414279999999
  3.1131988677000000  1.7974062043074333  1.8993914279999997
  3.1131988677000000  1.7974062043074333  6.8862414279999999
  1.5565527354000006  4.4935963948566187  1.8993914279999997
  1.5565527354000006  4.4935963948566187  6.8862414279999999
 -0.0000466984499982  7.1897057013177674  1.8993914279999997
 -0.0000466984499982  7.1897057013177674  6.8862414279999999
  6.2264911323000005  1.7974062043074333  1.8993914279999997
  6.2264911323000005  1.7974062043074333  6.8862414279999999
  4.6698450000000005  4.4935963948566187  1.8993914279999997
  4.6698450000000005  4.4935963948566187  6.8862414279999999
  3.1132455661500029  7.1897057013177674  1.8993914279999997
  3.1132455661500029  7.1897057013177674  6.8862414279999999
  0.0000000000000008  3.5948124086148665  7.4758865719999994
 -1.5566461322999980  6.2910025991640515  7.4758865719999994
  4.6698916984500007  0.8987031021537166  7.4758865719999994
  3.1132922646000014  3.5948124086148665  2.4890365720000003
  3.1132922646000014  3.5948124086148665  7.4758865719999994
  1.5566461323000020  6.2910025991640515  2.4890365720000003
  7.7830905661499985  0.8987031021537166  7.4758865719999994
  6.2264911322999987  3.5948124086148665  2.4890365720000003
  6.2264911322999987  3.5948124086148665  7.4758865719999994
  4.6698449999999996  6.2910025991640515  2.4890365720000003
  4.6698449999999996  6.2910025991640515  7.4758865719999994
  0.0000000000000004  1.7974062043074333  4.9824615719999992
 -3.1132455661499976  7.1897057013177674  4.9824615719999992
  3.1131988677000000  1.7974062043074333  4.9824615719999992
  3.1131988677000000  1.7974062043074333  9.9693115719999987
 -0.0000466984499982  7.1897057013177674  4.9824615719999992
  6.2264911323000005  1.7974062043074333  4.9824615719999992
  6.2264911323000005  1.7974062043074333  9.9693115719999987
  4.6698450000000005  4.4935963948566187  4.9824615719999992
  4.6698450000000005  4.4935963948566187  9.9693115719999987
  3.1132455661500029  7.1897057013177674  4.9824615719999992
  3.1132455661500029  7.1897057013177674  9.9693115719999987
